2735.64 0
0 7 102 65 30 186 22 199 136 197 191 198 194 66 193 0
0 178 78 123 83 98 127 182 185 184 53 195 0
0 161 135 163 189 165 164 170 167 15 171 139 96 0
0 147 73 148 168 100 152 157 172 121 156 91 158 0
0 133 19 128 29 59 138 155 173 101 93 141 68 143 90 41 190 0
0 120 174 122 27 8 132 150 119 131 129 169 9 0
0 112 114 113 115 104 159 117 107 118 110 109 108 111 0
0 160 89 137 142 94 140 166 124 153 99 34 175 60 97 151 95 0
0 87 88 37 13 180 84 85 77 80 187 3 24 62 0
0 179 70 177 69 71 162 75 72 63 74 144 183 67 0
0 106 56 25 39 57 58 5 103 82 64 86 61 0
0 116 43 42 48 47 154 45 46 51 40 44 0
0 176 35 52 38 31 32 130 12 50 81 17 0
0 79 20 36 21 28 33 188 126 26 149 0
0 14 134 11 76 55 181 18 49 23 192 196 6 0
0 1 2 54 125 4 10 92 146 145 16 105 0